1329566229 0 1
1329567723 0 2
1329569114 1 2
1329569763 2 2
1329569878 3 2
1329570313 4 2
1329570488 5 2
1329573125 6 2
1329573773 7 2
1329574129 8 2
1329574661 9 2
1329575334 9 3
1329575513 10 3
1329575641 10 4
1329577158 10 5
